c FILE /home/rafael/Documents/HappySet/MIHS/inputs/happygen/output/graph_d_regular_k3_p0.1_v50_20241127_082554.txt
c SOURCE This is a d-regular graph formed for the happy graph colouring problem.
c DESCRIPTION It was generated using the problem generator of Rhyd Lewis
c
c GRAPH STATS
c Seed                             = -447382358
c Number of Nodes                  = 50
c Number of colours k              = 3
c Number of pre-assignments        = 5
c Degree of all vertices           = 6
c Density                          = 0.122449
c 
c The degrees of nodes 1 to 50, respectively, are as follows 
c [6, 6, 6, 6, 6, 6, 6, 6, 6, 6, 6, 6, 6, 6, 6, 6, 6, 6, 6, 6, 6, 6, 6, 6, 6, 6, 
c  6, 6, 6, 6, 6, 6, 6, 6, 6, 6, 6, 6, 6, 6, 6, 6, 6, 6, 6, 6, 6, 6, 6, 6] 
c  
p edge 50 150 3
e 1 9
e 1 13
e 1 15
e 1 30
e 1 44
e 1 50
e 2 20
e 2 23
e 2 28
e 2 32
e 2 41
e 2 46
e 3 6
e 3 23
e 3 34
e 3 43
e 3 47
e 3 48
e 4 5
e 4 9
e 4 17
e 4 19
e 4 30
e 4 39
e 5 6
e 5 8
e 5 9
e 5 31
e 5 34
e 6 9
e 6 25
e 6 27
e 6 30
e 7 14
e 7 15
e 7 22
e 7 39
e 7 43
e 7 50
e 8 25
e 8 29
e 8 37
e 8 47
e 8 49
e 9 42
e 9 47
e 10 11
e 10 23
e 10 26
e 10 34
e 10 37
e 10 40
e 11 22
e 11 24
e 11 29
e 11 47
e 11 49
e 12 14
e 12 17
e 12 24
e 12 26
e 12 28
e 12 36
e 13 22
e 13 35
e 13 40
e 13 42
e 13 47
e 14 15
e 14 16
e 14 19
e 14 29
e 15 27
e 15 40
e 15 45
e 16 24
e 16 29
e 16 41
e 16 42
e 16 43
e 17 18
e 17 32
e 17 38
e 17 45
e 18 20
e 18 21
e 18 27
e 18 35
e 18 50
e 19 27
e 19 33
e 19 41
e 19 45
e 20 31
e 20 40
e 20 48
e 20 50
e 21 23
e 21 25
e 21 37
e 21 44
e 21 46
e 22 34
e 22 36
e 22 50
e 23 36
e 23 41
e 24 27
e 24 39
e 24 42
e 25 26
e 25 31
e 25 39
e 26 36
e 26 44
e 26 49
e 27 42
e 28 31
e 28 32
e 28 43
e 28 50
e 29 48
e 29 49
e 30 33
e 30 41
e 30 44
e 31 32
e 31 33
e 32 33
e 32 38
e 33 38
e 33 40
e 34 37
e 34 45
e 35 37
e 35 38
e 35 39
e 35 44
e 36 42
e 36 49
e 37 43
e 38 41
e 38 48
e 39 46
e 40 46
e 43 45
e 44 48
e 45 46
e 46 49
e 47 48
n 15 1
n 19 2
n 21 3
n 41 2
n 44 3
